(set-info :smt-lib-version 2.6)
(set-logic QF_BV)
(set-info :category "crafted")
(set-info :source |Alberto Griggio <griggio@fbk.eu>. These benchmarks were used for the evaluation in the following paper: L. Haller, A. Griggio, M. Brain, D. Kroening: Deciding floating-point logic with systematic abstraction. FMCAD 2012. Real-numbered literals have been automatically translated by MathSAT|)
(set-info :status sat)
;; MathSAT API call trace ;; generated on 05/20/15 17:24:54 
(declare-fun x () (_ SFXP 32 16))
(declare-fun y () (_ SFXP 32 16))
(declare-fun z () (_ SFXP 32 16))
(define-fun _t_9 () (_ SFXP 32 16) z)
(define-fun _t_10 () (_ SFXP 32 16) y)
(define-fun _t_11 () Bool (= _t_9 _t_10))
(assert _t_11)
(define-fun _t_3 () RoundingMode RNE)
(define-fun _t_12 () (_ SFXP 32 16) x)
(define-fun _t_13 () (_ SFXP 32 16) (sfxp.mul Wrapping roundTowardPositive _t_9 _t_10))
(define-fun _t_14 () Bool (= _t_12 _t_13))
(assert _t_14)
(define-fun _t_16 () (_ SFXP 32 16) (sfxp #x00000000 16))
(define-fun _t_17 () Bool (sfxp.lt _t_12 _t_16))
(assert _t_17)
(check-sat)
(exit)
